NAME : 10_3_3_3_(29).dat
COMMENT : Henke, Speranza, Wäscher, 2015
TYPE : MCVRP
DIMENSION : 11
EDGE_WEIGHT_TYPE : DISTANCE_MATRIX
CAPACITY : 1000
VEHICLES : 3
PRODUCT TYPES : 3
COMPARTMENTS : 3
NODE_COORD_SECTION
1 50 50
2 6.29 53.57
3 24.01 15.01
4 68.77 60.37
5 74.46 27
6 36.77 13.58
7 69.7 12.12
8 89.99 94.28
9 86.88 86.48
10 5.85 1.38
11 16.39 91.85
DEMAND_SECTION
1 0 0 0
2 32 31 51
3 139 14 22
4 48 20 48
5 93 53 41
6 131 52 50
7 133 128 11
8 62 22 33
9 8 42 20
10 154 47 18
11 52 102 47
DEPOT_SECTION
1
EOF